(set-option :print-success false)
(set-logic QF_UF)
(declare-sort x187 0)
(declare-sort x149 0)
(declare-fun x182 () x149)
(declare-fun x172 (x149 x149) x149)
(declare-fun x83 (x149 x149) x149)
(declare-fun x313 () x149)
(declare-fun x142 () x149)
(declare-fun x51 () x149)
(declare-fun x25 () x149)
(declare-fun x394 () x149)
(declare-fun x259 () x149)
(assert (and (= (x83 x394 x313) x182) (and (and (= x142 (x83 x394 x182)) (and (and (= x259 (x83 x51 x51)) (= (x83 x51 x259) x25)) (= x313 (x83 x51 x25)))) (= x394 (x83 x313 x25)))))
(assert (and (and (and (= x51 (x83 (x83 (x83 x51 x182) x182) x182)) (and (and (= (x83 (x83 (x83 x51 x142) x142) x142) x51) (and (and (= x51 (x83 (x83 (x83 x51 x25) x25) x25)) (= x51 (x83 (x83 (x83 x51 x259) x259) x259))) (= (x83 (x83 (x83 x51 x313) x313) x313) x51))) (= (x83 (x83 (x83 x51 x394) x394) x394) x51))) (= (x83 (x83 (x83 x51 x51) x51) x51) x51)) (and (and (and (= x394 (x83 (x83 (x83 x394 x51) x51) x51)) (and (and (and (= x394 (x83 (x83 (x83 x394 x142) x142) x142)) (and (and (= (x83 (x83 (x83 x394 x259) x259) x259) x394) (= x394 (x83 (x83 (x83 x394 x25) x25) x25))) (= (x83 (x83 (x83 x394 x313) x313) x313) x394))) (= (x83 (x83 (x83 x394 x394) x394) x394) x394)) (= x394 (x83 (x83 (x83 x394 x182) x182) x182)))) (and (and (and (= x142 (x83 (x83 (x83 x142 x182) x182) x182)) (and (= (x83 (x83 (x83 x142 x394) x394) x394) x142) (and (= (x83 (x83 (x83 x142 x142) x142) x142) x142) (and (and (= (x83 (x83 (x83 x142 x259) x259) x259) x142) (= (x83 (x83 (x83 x142 x25) x25) x25) x142)) (= x142 (x83 (x83 (x83 x142 x313) x313) x313)))))) (= x142 (x83 (x83 (x83 x142 x51) x51) x51))) (and (and (= x313 (x83 (x83 (x83 x313 x51) x51) x51)) (and (and (= (x83 (x83 (x83 x313 x394) x394) x394) x313) (and (and (= (x83 (x83 (x83 x313 x313) x313) x313) x313) (and (= (x83 (x83 (x83 x313 x259) x259) x259) x313) (= x313 (x83 (x83 (x83 x313 x25) x25) x25)))) (= (x83 (x83 (x83 x313 x142) x142) x142) x313))) (= (x83 (x83 (x83 x313 x182) x182) x182) x313))) (and (and (= x259 (x83 (x83 (x83 x259 x51) x51) x51)) (and (= (x83 (x83 (x83 x259 x182) x182) x182) x259) (and (and (= (x83 (x83 (x83 x259 x142) x142) x142) x259) (and (= x259 (x83 (x83 (x83 x259 x313) x313) x313)) (and (= (x83 (x83 (x83 x259 x259) x259) x259) x259) (= x259 (x83 (x83 (x83 x259 x25) x25) x25))))) (= (x83 (x83 (x83 x259 x394) x394) x394) x259)))) (and (= x25 (x83 (x83 (x83 x25 x51) x51) x51)) (and (= (x83 (x83 (x83 x25 x182) x182) x182) x25) (and (= x25 (x83 (x83 (x83 x25 x394) x394) x394)) (and (and (and (= x25 (x83 (x83 (x83 x25 x25) x25) x25)) (= (x83 (x83 (x83 x25 x259) x259) x259) x25)) (= (x83 (x83 (x83 x25 x313) x313) x313) x25)) (= x25 (x83 (x83 (x83 x25 x142) x142) x142)))))))))) (and (= x182 (x83 (x83 (x83 x182 x51) x51) x51)) (and (and (and (= x182 (x83 (x83 (x83 x182 x142) x142) x142)) (and (= (x83 (x83 (x83 x182 x313) x313) x313) x182) (and (= x182 (x83 (x83 (x83 x182 x259) x259) x259)) (= (x83 (x83 (x83 x182 x25) x25) x25) x182)))) (= x182 (x83 (x83 (x83 x182 x394) x394) x394))) (= x182 (x83 (x83 (x83 x182 x182) x182) x182)))))))
(assert (not (and (and (and (and (= x142 (x83 x51 x142)) (and (= (x83 x51 x313) x394) (and (and (= (x83 x51 x259) x25) (and (and (and (and (= (x83 x182 x142) x394) (and (and (= x25 (x83 x182 x25)) (and (= (x83 x182 x259) x182) (and (and (= x142 (x83 x394 x182)) (and (= x313 (x83 x394 x394)) (and (and (= (x83 x394 x313) x182) (and (= (x83 x394 x25) x51) (and (= (x83 x394 x259) x259) (and (= (x83 x142 x51) x182) (and (= (x83 x142 x182) x25) (and (and (and (= (x83 x142 x313) x313) (and (= (x83 x142 x25) x142) (and (= (x83 x142 x259) x394) (and (= (x83 x313 x51) x142) (and (= x182 (x83 x313 x182)) (and (and (= x313 (x83 x313 x142)) (and (and (and (and (and (= x394 (x83 x25 x182)) (and (and (= x182 (x83 x25 x142)) (and (and (= x259 (x83 x25 x25)) (and (and (and (and (= (x83 x259 x394) x394) (and (and (= x259 (x83 x259 x313)) (and (= x142 (x83 x259 x259)) (= x182 (x83 x259 x25)))) (= (x83 x259 x142) x51))) (= x313 (x83 x259 x182))) (= (x83 x259 x51) x25)) (= (x83 x25 x259) x313))) (= (x83 x25 x313) x142))) (= x25 (x83 x25 x394)))) (= x51 (x83 x25 x51))) (= x51 (x83 x313 x259))) (= x394 (x83 x313 x25))) (= (x83 x313 x313) x25))) (= x259 (x83 x313 x394)))))))) (= (x83 x142 x142) x259)) (= (x83 x142 x394) x51))))))) (= x25 (x83 x394 x142))))) (= x394 (x83 x394 x51))))) (= x51 (x83 x182 x313)))) (= (x83 x182 x394) x142)) (= x259 (x83 x182 x182))) (= x313 (x83 x182 x51)))) (= (x83 x51 x25) x313)))) (= x182 (x83 x51 x394))) (= (x83 x51 x182) x51)) (= x259 (x83 x51 x51)))))
(assert (and (and (not (= x394 x51)) (and (and (and (not (= x182 x142)) (and (not (= x394 x142)) (and (not (= x51 x313)) (and (and (and (and (not (= x25 x51)) (and (not (= x182 x25)) (and (and (and (not (= x25 x313)) (and (and (and (not (= x259 x394)) (and (and (not (= x259 x313)) (not (= x259 x25))) (not (= x259 x142)))) (not (= x182 x259))) (not (= x51 x259)))) (not (= x142 x25))) (not (= x394 x25))))) (not (= x142 x313))) (not (= x313 x394))) (not (= x313 x182)))))) (not (= x51 x142))) (not (= x394 x182)))) (not (= x182 x51))))
(assert (let ((x118 (x83 x313 x142)) (x121 (x83 x142 x259)) (x233 (x83 x25 x25)) (x152 (x83 x25 x313)) (x275 (x83 x25 x182)) (x62 (x83 x394 x182)) (x38 (x83 x313 x25)) (x107 (x83 x25 x394)) (x213 (x83 x394 x313)) (x285 (x83 x394 x51)) (x2 (x83 x313 x51)) (x97 (x83 x51 x394)) (x366 (x83 x51 x142)) (x119 (x83 x394 x142)) (x114 (x83 x51 x182)) (x342 (x83 x142 x182)) (x236 (x83 x394 x259)) (x270 (x83 x25 x142)) (x112 (x83 x182 x313)) (x249 (x83 x142 x142)) (x106 (x83 x313 x394)) (x75 (x83 x313 x182)) (x100 (x83 x182 x394)) (x122 (x83 x25 x259)) (x55 (x83 x182 x25)) (x50 (x83 x259 x142)) (x200 (x83 x313 x313)) (x30 (x83 x182 x51)) (x335 (x83 x259 x394)) (x331 (x83 x394 x394)) (x274 (x83 x182 x259)) (x8 (x83 x259 x51)) (x362 (x83 x259 x313)) (x371 (x83 x142 x51)) (x392 (x83 x51 x51)) (x308 (x83 x259 x259)) (x110 (x83 x182 x182)) (x324 (x83 x259 x182)) (x263 (x83 x313 x259)) (x171 (x83 x182 x142)) (x349 (x83 x25 x51)) (x176 (x83 x51 x259)) (x333 (x83 x142 x25)) (x69 (x83 x51 x313)) (x111 (x83 x394 x25)) (x402 (x83 x51 x25)) (x96 (x83 x142 x394)) (x334 (x83 x259 x25)) (x380 (x83 x142 x313))) (and (and (and (and (or (or (= x285 x182) (or (or (= x142 x285) (or (or (= x25 x285) (= x285 x259)) (= x285 x313))) (= x394 x285))) (= x285 x51)) (and (or (or (or (or (or (= x62 x313) (or (= x25 x62) (= x259 x62))) (= x62 x142)) (= x394 x62)) (= x62 x182)) (= x51 x62)) (and (or (= x51 x331) (or (= x331 x182) (or (or (or (or (= x331 x259) (= x331 x25)) (= x313 x331)) (= x331 x142)) (= x394 x331)))) (and (and (and (or (or (or (or (= x111 x142) (or (or (= x259 x111) (= x25 x111)) (= x313 x111))) (= x394 x111)) (= x111 x182)) (= x111 x51)) (or (= x236 x51) (or (= x236 x182) (or (= x394 x236) (or (= x236 x142) (or (= x313 x236) (or (= x236 x25) (= x236 x259)))))))) (or (or (= x182 x213) (or (or (= x213 x142) (or (or (= x213 x25) (= x259 x213)) (= x213 x313))) (= x213 x394))) (= x51 x213))) (or (= x119 x51) (or (= x119 x182) (or (or (or (= x119 x313) (or (= x259 x119) (= x25 x119))) (= x142 x119)) (= x394 x119)))))))) (and (and (and (and (or (= x51 x96) (or (= x96 x182) (or (or (or (or (= x259 x96) (= x25 x96)) (= x313 x96)) (= x142 x96)) (= x96 x394)))) (and (or (or (or (= x249 x394) (or (or (or (= x249 x259) (= x25 x249)) (= x313 x249)) (= x249 x142))) (= x182 x249)) (= x51 x249)) (and (and (or (or (= x182 x121) (or (= x394 x121) (or (or (or (= x121 x259) (= x25 x121)) (= x313 x121)) (= x121 x142)))) (= x121 x51)) (or (= x333 x51) (or (or (= x333 x394) (or (= x333 x142) (or (or (= x259 x333) (= x25 x333)) (= x313 x333)))) (= x333 x182)))) (or (= x380 x51) (or (= x380 x182) (or (or (or (= x380 x313) (or (= x259 x380) (= x380 x25))) (= x380 x142)) (= x380 x394))))))) (or (= x342 x51) (or (= x182 x342) (or (or (= x142 x342) (or (or (= x342 x25) (= x259 x342)) (= x313 x342))) (= x394 x342))))) (or (= x51 x371) (or (= x182 x371) (or (or (or (or (= x259 x371) (= x25 x371)) (= x313 x371)) (= x142 x371)) (= x371 x394))))) (and (and (and (or (or (= x75 x182) (or (or (= x142 x75) (or (= x75 x313) (or (= x259 x75) (= x75 x25)))) (= x75 x394))) (= x51 x75)) (and (and (or (= x118 x51) (or (or (= x394 x118) (or (or (or (= x25 x118) (= x259 x118)) (= x313 x118)) (= x118 x142))) (= x118 x182))) (and (and (or (or (= x182 x263) (or (= x263 x394) (or (= x263 x142) (or (= x313 x263) (or (= x25 x263) (= x259 x263)))))) (= x51 x263)) (or (or (or (= x394 x38) (or (or (= x38 x313) (or (= x25 x38) (= x259 x38))) (= x38 x142))) (= x38 x182)) (= x51 x38))) (or (or (= x200 x182) (or (= x200 x394) (or (= x142 x200) (or (or (= x259 x200) (= x200 x25)) (= x313 x200))))) (= x51 x200)))) (or (or (or (or (= x106 x142) (or (or (= x106 x25) (= x259 x106)) (= x313 x106))) (= x106 x394)) (= x182 x106)) (= x106 x51)))) (or (or (or (= x2 x394) (or (or (or (= x2 x25) (= x259 x2)) (= x2 x313)) (= x142 x2))) (= x2 x182)) (= x2 x51))) (and (and (and (or (or (or (or (= x275 x142) (or (or (= x25 x275) (= x275 x259)) (= x313 x275))) (= x275 x394)) (= x275 x182)) (= x275 x51)) (and (or (or (= x107 x182) (or (or (or (= x107 x313) (or (= x259 x107) (= x107 x25))) (= x142 x107)) (= x107 x394))) (= x107 x51)) (and (and (or (or (or (= x394 x152) (or (= x142 x152) (or (or (= x152 x259) (= x152 x25)) (= x152 x313)))) (= x152 x182)) (= x51 x152)) (and (or (or (or (= x394 x233) (or (or (= x313 x233) (or (= x233 x25) (= x259 x233))) (= x233 x142))) (= x233 x182)) (= x51 x233)) (or (= x51 x122) (or (or (= x394 x122) (or (= x122 x142) (or (or (= x122 x25) (= x122 x259)) (= x313 x122)))) (= x182 x122))))) (or (= x270 x51) (or (or (= x270 x394) (or (= x142 x270) (or (or (= x25 x270) (= x259 x270)) (= x270 x313)))) (= x182 x270)))))) (or (or (= x182 x349) (or (or (or (or (= x25 x349) (= x259 x349)) (= x349 x313)) (= x142 x349)) (= x394 x349))) (= x51 x349))) (and (or (or (= x8 x182) (or (= x8 x394) (or (or (= x313 x8) (or (= x259 x8) (= x8 x25))) (= x8 x142)))) (= x51 x8)) (and (or (or (= x324 x182) (or (= x394 x324) (or (or (= x313 x324) (or (= x259 x324) (= x25 x324))) (= x324 x142)))) (= x51 x324)) (and (and (or (= x50 x51) (or (= x182 x50) (or (= x394 x50) (or (= x142 x50) (or (or (= x25 x50) (= x259 x50)) (= x313 x50)))))) (and (or (= x51 x362) (or (= x362 x182) (or (or (= x362 x142) (or (= x362 x313) (or (= x362 x25) (= x362 x259)))) (= x362 x394)))) (and (or (or (= x334 x182) (or (or (= x142 x334) (or (= x313 x334) (or (= x334 x25) (= x334 x259)))) (= x334 x394))) (= x334 x51)) (or (or (or (= x308 x394) (or (or (or (= x308 x25) (= x259 x308)) (= x308 x313)) (= x308 x142))) (= x182 x308)) (= x308 x51))))) (or (= x51 x335) (or (or (or (or (= x313 x335) (or (= x25 x335) (= x259 x335))) (= x142 x335)) (= x335 x394)) (= x335 x182)))))))))) (and (and (and (and (and (and (or (or (or (or (= x55 x142) (or (= x313 x55) (or (= x55 x259) (= x55 x25)))) (= x55 x394)) (= x55 x182)) (= x51 x55)) (or (or (or (or (or (or (= x259 x274) (= x274 x25)) (= x274 x313)) (= x274 x142)) (= x394 x274)) (= x182 x274)) (= x274 x51))) (or (= x112 x51) (or (or (or (or (= x112 x313) (or (= x259 x112) (= x25 x112))) (= x112 x142)) (= x394 x112)) (= x112 x182)))) (or (= x51 x171) (or (or (or (or (or (= x171 x259) (= x171 x25)) (= x171 x313)) (= x142 x171)) (= x394 x171)) (= x182 x171)))) (or (or (or (or (= x142 x100) (or (or (= x25 x100) (= x100 x259)) (= x100 x313))) (= x394 x100)) (= x182 x100)) (= x51 x100))) (or (= x51 x110) (or (= x182 x110) (or (= x110 x394) (or (or (= x313 x110) (or (= x25 x110) (= x110 x259))) (= x142 x110)))))) (or (= x51 x30) (or (= x30 x182) (or (or (= x142 x30) (or (= x30 x313) (or (= x259 x30) (= x30 x25)))) (= x30 x394)))))) (and (and (or (or (= x182 x114) (or (or (= x114 x142) (or (= x313 x114) (or (= x259 x114) (= x25 x114)))) (= x394 x114))) (= x51 x114)) (and (and (or (= x51 x366) (or (or (= x366 x394) (or (= x142 x366) (or (or (= x366 x259) (= x366 x25)) (= x366 x313)))) (= x366 x182))) (and (and (or (= x51 x176) (or (or (or (= x176 x142) (or (or (= x259 x176) (= x25 x176)) (= x176 x313))) (= x394 x176)) (= x182 x176))) (or (or (or (= x402 x394) (or (= x142 x402) (or (or (= x402 x259) (= x25 x402)) (= x402 x313)))) (= x182 x402)) (= x51 x402))) (or (= x51 x69) (or (= x69 x182) (or (or (or (or (= x69 x259) (= x25 x69)) (= x313 x69)) (= x69 x142)) (= x394 x69)))))) (or (or (= x97 x182) (or (= x97 x394) (or (or (= x313 x97) (or (= x97 x25) (= x97 x259))) (= x97 x142)))) (= x51 x97)))) (or (= x51 x392) (or (or (or (or (or (= x259 x392) (= x392 x25)) (= x392 x313)) (= x392 x142)) (= x394 x392)) (= x182 x392)))))))
(assert (and (and (not (= (x83 x182 x182) x182)) (and (and (not (= x142 (x83 x142 x142))) (and (and (not (= (x83 x259 x259) x259)) (not (= (x83 x25 x25) x25))) (not (= (x83 x313 x313) x313)))) (not (= x394 (x83 x394 x394))))) (not (= x51 (x83 x51 x51)))))
(assert (let ((x342 (x83 x25 x142)) (x274 (x83 x182 x25)) (x334 (x83 x259 x259)) (x161 (x83 x394 x394)) (x222 (x83 x51 x142)) (x335 (x83 x259 x142)) (x211 (x83 x51 x51)) (x275 (x83 x394 x259)) (x111 (x83 x25 x51)) (x362 (x83 x259 x25)) (x323 (x83 x313 x142)) (x324 (x83 x259 x394)) (x337 (x83 x142 x394)) (x249 (x83 x25 x25)) (x196 (x83 x394 x142)) (x353 (x83 x142 x313)) (x331 (x83 x313 x25)) (x50 (x83 x259 x313)) (x152 (x83 x25 x259)) (x390 (x83 x394 x182)) (x371 (x83 x25 x394)) (x254 (x83 x142 x51)) (x267 (x83 x182 x51)) (x350 (x83 x313 x394)) (x137 (x83 x142 x142)) (x270 (x83 x313 x259)) (x96 (x83 x25 x313)) (x185 (x83 x182 x394)) (x253 (x83 x182 x182)) (x62 (x83 x142 x25)) (x330 (x83 x313 x182)) (x321 (x83 x142 x182)) (x63 (x83 x394 x313)) (x293 (x83 x182 x142)) (x8 (x83 x259 x182)) (x263 (x83 x51 x259)) (x284 (x83 x51 x394)) (x269 (x83 x51 x313)) (x105 (x83 x51 x182)) (x373 (x83 x394 x51)) (x107 (x83 x142 x259)) (x203 (x83 x313 x51)) (x236 (x83 x25 x182)) (x278 (x83 x182 x313)) (x122 (x83 x259 x51)) (x349 (x83 x182 x259)) (x55 (x83 x51 x25)) (x285 (x83 x394 x25)) (x352 (x83 x313 x313))) (let ((x13 (= x394 x161)) (x256 (= x63 x142)) (x10 (= x51 x373)) (x57 (= x8 x142)) (x179 (= x25 x263)) (x357 (= x275 x394)) (x36 (= x352 x25)) (x372 (= x285 x25)) (x164 (= x390 x313)) (x77 (= x182 x373)) (x387 (= x293 x51)) (x53 (= x270 x51)) (x32 (= x62 x25)) (x215 (= x105 x51)) (x207 (= x284 x259)) (x15 (= x25 x107)) (x192 (= x96 x394)) (x129 (= x285 x313)) (x155 (= x259 x196)) (x288 (= x211 x142)) (x145 (= x323 x142)) (x344 (= x142 x62)) (x115 (= x142 x274)) (x233 (= x334 x25)) (x301 (= x182 x111)) (x128 (= x275 x25)) (x136 (= x284 x51)) (x379 (= x324 x142)) (x380 (= x152 x25)) (x290 (= x342 x25)) (x230 (= x285 x394)) (x43 (= x185 x259)) (x310 (= x50 x25)) (x264 (= x313 x350)) (x294 (= x51 x196)) (x391 (= x321 x51)) (x140 (= x352 x51)) (x218 (= x274 x51)) (x315 (= x25 x269)) (x351 (= x55 x182)) (x117 (= x182 x331)) (x79 (= x25 x161)) (x336 (= x182 x324)) (x370 (= x25 x254)) (x234 (= x182 x96)) (x71 (= x182 x352)) (x173 (= x373 x142)) (x273 (= x342 x313)) (x72 (= x182 x211)) (x383 (= x269 x259)) (x329 (= x284 x394)) (x393 (= x293 x182)) (x328 (= x55 x25)) (x296 (= x182 x137)) (x260 (= x373 x259)) (x64 (= x236 x313)) (x245 (= x259 x111)) (x388 (= x142 x107)) (x54 (= x25 x373)) (x181 (= x394 x55)) (x345 (= x142 x330)) (x125 (= x51 x349)) (x69 (= x362 x394)) (x119 (= x25 x249)) (x31 (= x275 x51)) (x374 (= x373 x313)) (x216 (= x371 x25)) (x327 (= x161 x182)) (x133 (= x25 x390)) (x102 (= x353 x259)) (x314 (= x313 x63)) (x251 (= x275 x142)) (x59 (= x25 x8)) (x326 (= x182 x335)) (x175 (= x285 x142)) (x385 (= x122 x25)) (x75 (= x51 x334)) (x35 (= x182 x270)) (x60 (= x51 x285)) (x78 (= x394 x253)) (x382 (= x350 x142)) (x368 (= x51 x342)) (x248 (= x313 x330)) (x120 (= x323 x51)) (x265 (= x25 x331)) (x58 (= x211 x259)) (x127 (= x142 x253)) (x118 (= x334 x394)) (x242 (= x274 x25)) (x403 (= x25 x105)) (x193 (= x51 x269)) (x291 (= x394 x270)) (x186 (= x211 x51)) (x347 (= x107 x51)) (x401 (= x203 x259)) (x376 (= x182 x122)) (x100 (= x249 x313)) (x279 (= x394 x390)) (x287 (= x350 x182)) (x271 (= x203 x51)) (x312 (= x51 x253)) (x26 (= x142 x203)) (x395 (= x371 x182)) (x154 (= x313 x96)) (x226 (= x321 x25)) (x208 (= x371 x259)) (x82 (= x236 x142)) (x52 (= x313 x267)) (x139 (= x142 x349)) (x48 (= x51 x330)) (x244 (= x50 x313)) (x47 (= x111 x394)) (x201 (= x269 x182)) (x289 (= x96 x142)) (x240 (= x274 x394)) (x87 (= x259 x285)) (x212 (= x352 x142)) (x44 (= x51 x62)) (x20 (= x313 x62)) (x189 (= x51 x55)) (x386 (= x111 x313)) (x322 (= x270 x313)) (x18 (= x394 x263)) (x298 (= x182 x330)) (x308 (= x259 x334)) (x306 (= x353 x25)) (x219 (= x323 x394)) (x255 (= x51 x267)) (x98 (= x259 x331)) (x325 (= x55 x142)) (x11 (= x278 x51)) (x56 (= x335 x51)) (x225 (= x394 x137)) (x113 (= x236 x51)) (x143 (= x182 x337)) (x400 (= x236 x259)) (x160 (= x269 x142)) (x384 (= x142 x185)) (x228 (= x313 x275)) (x366 (= x394 x249)) (x232 (= x142 x105)) (x74 (= x259 x63)) (x213 (= x25 x362)) (x30 (= x362 x142)) (x109 (= x25 x211)) (x101 (= x25 x335)) (x268 (= x337 x51)) (x176 (= x142 x249)) (x365 (= x182 x203)) (x398 (= x182 x390)) (x227 (= x51 x371)) (x150 (= x394 x236)) (x124 (= x278 x313)) (x247 (= x196 x394)) (x1 (= x313 x324)) (x377 (= x313 x269)) (x346 (= x267 x394)) (x358 (= x185 x313)) (x171 (= x313 x362)) (x198 (= x349 x182)) (x104 (= x182 x8)) (x277 (= x161 x51)) (x199 (= x323 x259)) (x235 (= x278 x25)) (x12 (= x107 x259)) (x88 (= x51 x254)) (x24 (= x196 x142)) (x132 (= x353 x394)) (x144 (= x222 x394)) (x363 (= x259 x263)) (x9 (= x254 x259)) (x257 (= x137 x142)) (x73 (= x182 x278)) (x339 (= x335 x313)) (x266 (= x62 x394)) (x276 (= x284 x313)) (x178 (= x203 x25)) (x95 (= x142 x270)) (x202 (= x259 x137)) (x131 (= x337 x313)) (x302 (= x259 x324)) (x402 (= x394 x152)) (x258 (= x203 x313)) (x92 (= x269 x394)) (x320 (= x390 x259)) (x282 (= x236 x25)) (x4 (= x152 x51)) (x340 (= x182 x274)) (x180 (= x182 x253)) (x184 (= x142 x337)) (x183 (= x353 x313)) (x76 (= x25 x222)) (x45 (= x330 x394)) (x210 (= x196 x25)) (x304 (= x284 x142)) (x392 (= x182 x249)) (x361 (= x274 x313)) (x162 (= x394 x203)) (x239 (= x342 x182)) (x195 (= x182 x285)) (x110 (= x152 x142)) (x7 (= x25 x349)) (x217 (= x313 x254)) (x261 (= x185 x25)) (x194 (= x25 x111)) (x27 (= x25 x96)) (x147 (= x254 x182)) (x169 (= x278 x394)) (x299 (= x122 x313)) (x311 (= x394 x350)) (x223 (= x259 x342)) (x359 (= x182 x185)) (x396 (= x353 x51)) (x146 (= x50 x259)) (x91 (= x51 x324)) (x341 (= x293 x25)) (x141 (= x182 x263)) (x66 (= x313 x323)) (x138 (= x222 x313)) (x68 (= x313 x161)) (x318 (= x25 x270)) (x80 (= x394 x371)) (x190 (= x284 x25)) (x378 (= x107 x182)) (x86 (= x63 x51)) (x200 (= x142 x334)) (x367 (= x142 x342)) (x39 (= x352 x394)) (x108 (= x270 x259)) (x33 (= x323 x25)) (x38 (= x334 x313)) (x46 (= x185 x51)) (x317 (= x182 x222)) (x205 (= x51 x350)) (x21 (= x313 x8)) (x309 (= x330 x25)) (x17 (= x105 x394)) (x356 (= x313 x352)) (x262 (= x185 x394)) (x389 (= x353 x142)) (x16 (= x259 x122)) (x114 (= x182 x362)) (x332 (= x313 x371)) (x148 (= x313 x137)) (x206 (= x25 x253)) (x286 (= x25 x137)) (x197 (= x182 x267)) (x166 (= x50 x394)) (x209 (= x293 x313)) (x23 (= x394 x254)) (x22 (= x259 x275)) (x14 (= x222 x259)) (x130 (= x352 x259)) (x369 (= x313 x349)) (x5 (= x105 x313)) (x28 (= x62 x182)) (x303 (= x259 x349)) (x134 (= x259 x267)) (x292 (= x55 x259)) (x3 (= x394 x337)) (x65 (= x142 x371)) (x29 (= x142 x335)) (x157 (= x337 x25)) (x168 (= x335 x259)) (x126 (= x62 x259)) (x355 (= x362 x51)) (x250 (= x394 x321)) (x243 (= x324 x25)) (x167 (= x331 x394)) (x280 (= x50 x51)) (x159 (= x142 x222)) (x94 (= x142 x254)) (x6 (= x63 x25)) (x375 (= x394 x293)) (x246 (= x313 x321)) (x170 (= x107 x313)) (x307 (= x51 x111)) (x40 (= x142 x321)) (x89 (= x182 x353)) (x224 (= x182 x236)) (x67 (= x142 x278)) (x295 (= x259 x321)) (x99 (= x394 x107)) (x85 (= x394 x349)) (x81 (= x330 x259)) (x238 (= x394 x342)) (x300 (= x51 x222)) (x135 (= x182 x196)) (x97 (= x152 x182)) (x106 (= x334 x182)) (x123 (= x161 x142)) (x229 (= x259 x274)) (x34 (= x111 x142)) (x272 (= x259 x278)) (x381 (= x51 x122)) (x165 (= x350 x259)) (x204 (= x259 x161)) (x354 (= x142 x263)) (x156 (= x182 x321)) (x41 (= x142 x122)) (x297 (= x182 x323)) (x163 (= x182 x63)) (x305 (= x313 x211)) (x61 (= x331 x51)) (x283 (= x259 x253)) (x191 (= x63 x394)) (x364 (= x105 x259)) (x241 (= x337 x259)) (x252 (= x275 x182)) (x348 (= x142 x293)) (x2 (= x259 x152)) (x220 (= x394 x373)) (x84 (= x50 x142)) (x214 (= x313 x331)) (x42 (= x263 x51)) (x70 (= x267 x25)) (x151 (= x284 x182)) (x237 (= x96 x259)) (x188 (= x51 x249)) (x103 (= x331 x142)) (x37 (= x8 x394)) (x112 (= x152 x313)) (x281 (= x51 x96)) (x177 (= x335 x394)) (x221 (= x8 x51)) (x399 (= x350 x25)) (x153 (= x313 x55)) (x158 (= x390 x51)) (x19 (= x263 x313)) (x316 (= x390 x142)) (x90 (= x313 x253)) (x319 (= x267 x142)) (x397 (= x259 x293)) (x93 (= x137 x51)) (x231 (= x182 x50)) (x360 (= x211 x394)) (x121 (= x259 x362)) (x116 (= x8 x259)) (x174 (= x182 x105)) (x338 (= x324 x394)) (x343 (= x313 x196)) (x49 (= x394 x122)) (x333 (= x259 x249))) (and (and (and (or (or x215 (or (or x300 (or (or x42 x189) x193)) x136)) x186) (or (or (or x10 (or x88 (or x271 (or x381 x307)))) x255) x186)) (and (and (or (or (or (or x317 (or (or x351 x141) x201)) x151) x174) x72) (or (or (or (or x147 (or (or x301 x376) x365)) x77) x197) x72)) (and (and (or (or (or x329 (or x144 (or x92 (or x181 x18)))) x17) x360) (or (or (or (or (or x162 (or x49 x47)) x23) x220) x346) x360)) (and (and (or x288 (or (or x304 (or (or x160 (or x325 x354)) x159)) x232)) (or (or (or (or x94 (or (or x34 x41) x26)) x173) x319) x288)) (and (and (or x305 (or (or x374 (or (or (or x299 x386) x258) x217)) x52)) (or x305 (or x5 (or (or (or (or x19 x153) x377) x138) x276)))) (and (and (or (or x70 (or x54 (or (or x178 (or x194 x385)) x370))) x109) (or (or x403 (or x190 (or x76 (or x315 (or x328 x179))))) x109)) (and (or x58 (or x364 (or (or (or x383 (or x292 x363)) x14) x207))) (or x58 (or x134 (or x260 (or x9 (or x401 (or x245 x16))))))))))))) (and (and (and (and (and (and (and (or (or x73 (or x163 (or (or x71 (or x231 x234)) x89))) x201) (or (or x298 (or (or (or x71 (or x117 x35)) x297) x287)) x365)) (and (and (or (or x45 (or x311 (or (or (or x291 x167) x39) x219))) x162) (or (or (or x191 (or x132 (or x39 (or x192 x166)))) x169) x92)) (and (and (and (or (or (or (or x66 (or (or x214 x322) x356)) x264) x248) x258) (or x377 (or (or x314 (or (or (or x244 x154) x356) x183)) x124))) (and (and (or x315 (or x235 (or x6 (or x306 (or x36 (or x27 x310)))))) (or x178 (or (or x399 (or x33 (or x36 (or x265 x318)))) x309))) (and (or (or x272 (or x74 (or x102 (or x130 (or x237 x146))))) x383) (or x401 (or (or (or x199 (or x130 (or x108 x98))) x165) x81))))) (and (or (or (or (or (or (or x103 x95) x212) x145) x382) x345) x26) (or (or (or x256 (or (or x212 (or x84 x289)) x389)) x67) x160))))) (and (or (or x48 (or (or (or (or x53 x61) x140) x120) x205)) x271) (or (or (or (or (or (or x280 x281) x140) x396) x86) x11) x193))) (and (and (and (and (and (and (or (or (or x251 (or (or (or x200 x110) x95) x388)) x139) x354) (or (or x57 (or (or (or x84 (or x30 x200)) x29) x379)) x41)) (and (and (or x19 (or x369 (or (or (or x322 (or x38 x112)) x170) x228))) (or x299 (or (or x1 (or (or (or x38 x171) x244) x339)) x21))) (and (and (or (or x303 (or (or (or (or x308 x2) x108) x12) x22)) x363) (or x16 (or (or (or x168 (or (or x121 x308) x146)) x302) x116))) (and (or x385 (or (or x243 (or (or x310 (or x213 x233)) x101)) x59)) (or x179 (or x7 (or (or (or x318 (or x233 x380)) x15) x128))))))) (and (or x18 (or (or (or x99 (or x291 (or x118 x402))) x357) x85)) (or x49 (or (or x338 (or (or (or x118 x69) x166) x177)) x37)))) (and (or (or x104 (or x336 (or x326 (or (or x106 x114) x231)))) x376) (or (or x198 (or (or (or x35 (or x97 x106)) x378) x252)) x141))) (and (or x381 (or x221 (or (or (or x280 (or x355 x75)) x56) x91))) (or x42 (or (or (or (or x53 (or x4 x75)) x347) x31) x125)))) (and (and (or (or (or (or x44 (or (or x355 x188) x61)) x60) x218) x189) (or x307 (or x113 (or x227 (or (or x281 (or x188 x4)) x368))))) (and (and (and (or (or (or (or (or (or x366 x69) x167) x266) x230) x240) x181) (or x47 (or x150 (or x80 (or (or (or x402 x366) x192) x238))))) (and (and (and (and (or x292 (or (or (or x126 (or x98 (or x121 x333))) x87) x229)) (or x245 (or x400 (or x208 (or (or (or x2 x333) x237) x223))))) (and (or x328 (or (or x372 (or (or (or x213 x119) x265) x32)) x242)) (or x194 (or (or (or (or x27 (or x380 x119)) x290) x216) x282)))) (and (or x153 (or (or (or x20 (or (or x100 x171) x214)) x129) x361)) (or x386 (or x64 (or (or (or x154 (or x112 x100)) x273) x332))))) (and (or x325 (or x115 (or (or (or x103 (or x30 x176)) x344) x175))) (or x34 (or (or (or (or x289 (or x110 x176)) x367) x65) x82))))) (and (or (or x340 (or (or x28 (or x117 (or x114 x392))) x195)) x351) (or x301 (or x224 (or (or (or x234 (or x97 x392)) x239) x395)))))))) (and (and (or x300 (or x387 (or (or (or (or x368 x56) x120) x93) x294))) (or x88 (or (or x268 (or (or (or x347 x44) x396) x93)) x391))) (and (and (and (and (and (and (or x14 (or (or (or (or x199 (or x223 x168)) x202) x155) x397)) (or x9 (or (or (or (or x102 (or x126 x12)) x202) x241) x295))) (and (or (or (or (or x286 (or (or x290 x101) x33)) x210) x341) x76) (or (or (or (or x286 (or (or x32 x15) x306)) x157) x226) x370))) (and (or (or x246 (or (or (or (or x20 x170) x183) x148) x131)) x217) (or (or (or x343 (or x148 (or x66 (or x273 x339)))) x209) x138))) (and (or (or x348 (or (or x257 (or (or x29 x367) x145)) x24)) x159) (or x94 (or (or x184 (or x257 (or x389 (or x388 x344)))) x40)))) (and (or (or x375 (or (or (or x219 (or x177 x238)) x225) x247)) x144) (or (or (or x3 (or x225 (or x132 (or x99 x266)))) x250) x23))) (and (or (or x156 (or (or (or (or x28 x378) x89) x296) x143)) x147) (or (or (or x135 (or x296 (or x297 (or x326 x239)))) x393) x317))))) (and (and (or x136 (or x46 (or x277 (or x268 (or x205 (or x227 x91)))))) (or (or (or (or (or x86 (or x60 x31)) x294) x277) x158) x10)) (and (and (and (and (and (and (or x207 (or x43 (or x204 (or (or x165 (or x208 x302)) x241)))) (or (or (or x204 (or (or x74 (or x22 x87)) x155)) x320) x260)) (and (or (or x133 (or (or x210 (or (or x128 x372) x6)) x79)) x54) (or (or (or x79 (or (or (or x216 x243) x399) x157)) x261) x190))) (and (or x276 (or (or (or (or x264 (or x332 x1)) x131) x68) x358)) (or (or x164 (or x68 (or x343 (or (or x228 x129) x314)))) x374))) (and (or (or x316 (or (or x24 (or x256 (or x251 x175))) x123)) x173) (or (or x384 (or x123 (or (or x382 (or x379 x65)) x184))) x304))) (and (or (or x279 (or (or (or x191 (or x357 x230)) x247) x13)) x220) (or x329 (or (or (or x3 (or (or x338 x80) x311)) x13) x262)))) (and (or x77 (or (or x327 (or (or x163 (or x252 x195)) x135)) x398)) (or x151 (or x359 (or x327 (or x143 (or x287 (or x336 x395)))))))))) (and (and (or (or (or x46 (or x387 (or x11 (or x125 x218)))) x312) x255) (or (or (or (or (or (or x113 x221) x48) x391) x158) x312) x215)) (and (and (and (and (or x232 (or (or x316 (or (or (or x57 x82) x345) x40)) x127)) (or (or x127 (or (or x348 (or x67 (or x115 x139))) x384)) x319)) (and (and (or x52 (or x90 (or x358 (or (or x124 (or x369 x361)) x209)))) (or (or x90 (or x164 (or x246 (or (or x64 x21) x248)))) x5)) (and (and (or (or x206 (or x133 (or (or x309 (or x59 x282)) x226))) x403) (or x70 (or x206 (or x261 (or (or x235 (or x242 x7)) x341))))) (and (or x364 (or (or (or (or (or x400 x116) x81) x295) x320) x283)) (or x134 (or x283 (or x43 (or x397 (or (or x229 x303) x272))))))))) (and (or (or x78 (or x279 (or x250 (or x45 (or x37 x150))))) x17) (or x346 (or x78 (or (or (or x169 (or x85 x240)) x375) x262))))) (and (or x174 (or (or x398 (or (or x298 (or x224 x104)) x156)) x180)) (or x197 (or (or (or (or x73 (or x340 x198)) x393) x359) x180))))))))))
(assert (let ((x119 (x83 x142 x394)) (x114 (x83 x182 x51)) (x69 (x83 x313 x51)) (x152 (x83 x313 x25)) (x362 (x83 x313 x259)) (x50 (x83 x142 x259)) (x366 (x83 x142 x51)) (x38 (x83 x25 x313)) (x106 (x83 x394 x313)) (x121 (x83 x259 x142)) (x263 (x83 x259 x313)) (x30 (x83 x51 x182)) (x171 (x83 x142 x182)) (x392 (x83 x51 x51)) (x100 (x83 x394 x182)) (x118 (x83 x142 x313)) (x233 (x83 x25 x25)) (x334 (x83 x25 x259)) (x110 (x83 x182 x182)) (x249 (x83 x142 x142)) (x380 (x83 x313 x142)) (x371 (x83 x51 x142)) (x335 (x83 x394 x259)) (x324 (x83 x182 x259)) (x274 (x83 x259 x182)) (x122 (x83 x259 x25)) (x270 (x83 x142 x25)) (x236 (x83 x259 x394)) (x112 (x83 x313 x182)) (x331 (x83 x394 x394)) (x333 (x83 x25 x142)) (x107 (x83 x394 x25)) (x275 (x83 x182 x25)) (x62 (x83 x182 x394)) (x200 (x83 x313 x313)) (x213 (x83 x313 x394)) (x75 (x83 x182 x313)) (x176 (x83 x259 x51)) (x8 (x83 x51 x259)) (x96 (x83 x394 x142)) (x308 (x83 x259 x259)) (x97 (x83 x394 x51)) (x2 (x83 x51 x313)) (x342 (x83 x182 x142)) (x402 (x83 x25 x51)) (x111 (x83 x25 x394)) (x285 (x83 x51 x394)) (x55 (x83 x25 x182)) (x349 (x83 x51 x25))) (and (and (and (not (= x392 x30)) (and (and (not (= x30 x285)) (and (and (not (= x371 x30)) (and (and (not (= x392 x2)) (and (not (= x2 x30)) (and (not (= x2 x285)) (and (and (not (= x349 x392)) (and (not (= x30 x349)) (and (and (and (and (and (not (= x30 x8)) (and (and (not (= x371 x8)) (and (not (= x8 x349)) (not (= x8 x2)))) (not (= x8 x285)))) (not (= x8 x392))) (not (= x349 x2))) (not (= x349 x371))) (not (= x285 x349))))) (not (= x2 x371)))))) (not (= x285 x371)))) (not (= x392 x371)))) (not (= x285 x392)))) (and (and (not (= x110 x114)) (and (and (not (= x62 x110)) (and (not (= x342 x114)) (and (not (= x342 x110)) (and (not (= x342 x62)) (and (and (and (and (and (and (and (and (and (not (= x275 x75)) (and (not (= x324 x114)) (and (not (= x110 x324)) (and (and (not (= x342 x324)) (and (not (= x324 x75)) (not (= x275 x324)))) (not (= x62 x324)))))) (not (= x275 x342))) (not (= x275 x62))) (not (= x110 x275))) (not (= x114 x275))) (not (= x342 x75))) (not (= x75 x62))) (not (= x110 x75))) (not (= x114 x75))))))) (not (= x114 x62)))) (and (and (not (= x100 x97)) (and (and (and (not (= x97 x96)) (and (and (and (not (= x97 x106)) (and (not (= x100 x106)) (and (not (= x331 x106)) (and (not (= x106 x96)) (and (not (= x107 x97)) (and (and (and (not (= x107 x96)) (and (not (= x107 x106)) (and (not (= x97 x335)) (and (not (= x100 x335)) (and (and (not (= x335 x96)) (and (not (= x107 x335)) (not (= x106 x335)))) (not (= x331 x335))))))) (not (= x107 x331))) (not (= x107 x100)))))))) (not (= x96 x331))) (not (= x100 x96)))) (not (= x331 x100))) (not (= x331 x97)))) (and (and (and (and (and (and (and (not (= x176 x121)) (and (not (= x274 x121)) (and (and (not (= x176 x263)) (and (and (and (and (and (not (= x122 x274)) (and (and (and (not (= x122 x263)) (and (and (and (not (= x308 x236)) (and (and (not (= x263 x308)) (not (= x122 x308))) (not (= x121 x308)))) (not (= x308 x274))) (not (= x176 x308)))) (not (= x121 x122))) (not (= x122 x236)))) (not (= x176 x122))) (not (= x263 x121))) (not (= x236 x263))) (not (= x274 x263)))) (not (= x121 x236))))) (not (= x274 x236))) (not (= x236 x176))) (not (= x274 x176))) (and (and (and (not (= x55 x111)) (and (not (= x402 x333)) (and (not (= x55 x333)) (and (and (and (not (= x55 x38)) (and (and (not (= x333 x38)) (and (and (and (not (= x111 x233)) (and (not (= x333 x233)) (and (and (not (= x402 x334)) (and (and (not (= x334 x111)) (and (not (= x333 x334)) (and (not (= x334 x38)) (not (= x233 x334))))) (not (= x55 x334)))) (not (= x38 x233))))) (not (= x55 x233))) (not (= x233 x402)))) (not (= x38 x111)))) (not (= x38 x402))) (not (= x333 x111)))))) (not (= x402 x111))) (not (= x55 x402)))) (and (not (= x112 x69)) (and (and (not (= x213 x112)) (and (not (= x69 x380)) (and (and (and (and (and (not (= x200 x213)) (and (and (and (not (= x152 x112)) (and (and (not (= x152 x380)) (and (not (= x152 x200)) (and (not (= x69 x362)) (and (not (= x362 x112)) (and (not (= x362 x213)) (and (not (= x362 x380)) (and (not (= x362 x200)) (not (= x152 x362))))))))) (not (= x152 x213)))) (not (= x152 x69))) (not (= x380 x200)))) (not (= x200 x112))) (not (= x69 x200))) (not (= x380 x213))) (not (= x112 x380))))) (not (= x213 x69))))) (and (not (= x366 x171)) (and (not (= x119 x366)) (and (and (and (and (and (and (not (= x171 x118)) (and (not (= x119 x118)) (and (not (= x118 x249)) (and (and (and (not (= x270 x119)) (and (and (and (and (not (= x50 x171)) (and (not (= x50 x119)) (and (not (= x249 x50)) (and (not (= x50 x270)) (not (= x118 x50)))))) (not (= x50 x366))) (not (= x118 x270))) (not (= x249 x270)))) (not (= x171 x270))) (not (= x366 x270)))))) (not (= x118 x366))) (not (= x249 x119))) (not (= x249 x171))) (not (= x249 x366))) (not (= x119 x171))))))))) (and (and (and (and (not (= x285 x62)) (and (and (not (= x331 x62)) (and (and (not (= x119 x62)) (and (not (= x119 x331)) (and (not (= x213 x285)) (and (and (and (not (= x213 x119)) (and (and (and (and (and (and (and (and (not (= x331 x236)) (and (not (= x119 x236)) (and (not (= x236 x111)) (not (= x213 x236))))) (not (= x62 x236))) (not (= x236 x285))) (not (= x213 x111))) (not (= x119 x111))) (not (= x111 x331))) (not (= x62 x111))) (not (= x285 x111)))) (not (= x331 x213))) (not (= x213 x62)))))) (not (= x119 x285)))) (not (= x285 x331)))) (and (and (and (and (not (= x275 x349)) (and (and (and (not (= x270 x349)) (and (not (= x270 x275)) (and (not (= x107 x270)) (and (not (= x349 x152)) (and (and (and (and (not (= x233 x349)) (and (not (= x275 x233)) (and (and (not (= x270 x233)) (and (and (and (not (= x275 x122)) (and (not (= x107 x122)) (and (not (= x270 x122)) (and (not (= x152 x122)) (not (= x122 x233)))))) (not (= x122 x349))) (not (= x152 x233)))) (not (= x233 x107))))) (not (= x152 x270))) (not (= x152 x107))) (not (= x152 x275))))))) (not (= x275 x107))) (not (= x107 x349)))) (and (and (not (= x8 x335)) (and (not (= x324 x335)) (and (and (not (= x50 x324)) (and (and (and (and (not (= x362 x335)) (and (and (not (= x8 x334)) (and (and (and (not (= x50 x334)) (and (and (and (not (= x324 x308)) (and (and (not (= x50 x308)) (and (not (= x362 x308)) (not (= x334 x308)))) (not (= x335 x308)))) (not (= x308 x8))) (not (= x334 x362)))) (not (= x335 x334))) (not (= x324 x334)))) (not (= x50 x362)))) (not (= x324 x362))) (not (= x362 x8))) (not (= x335 x50)))) (not (= x8 x50))))) (not (= x8 x324)))) (and (and (not (= x2 x106)) (and (not (= x106 x75)) (and (not (= x118 x2)) (and (and (not (= x106 x118)) (and (not (= x200 x2)) (and (not (= x200 x75)) (and (and (and (and (not (= x75 x38)) (and (and (and (not (= x200 x38)) (and (and (and (and (and (not (= x263 x38)) (not (= x263 x200))) (not (= x263 x118))) (not (= x106 x263))) (not (= x75 x263))) (not (= x263 x2)))) (not (= x118 x38))) (not (= x106 x38)))) (not (= x2 x38))) (not (= x118 x200))) (not (= x106 x200)))))) (not (= x118 x75)))))) (not (= x2 x75)))) (and (and (not (= x96 x371)) (and (and (not (= x371 x249)) (and (not (= x342 x249)) (and (not (= x96 x249)) (and (and (not (= x380 x342)) (and (and (and (not (= x371 x333)) (and (and (and (and (not (= x333 x380)) (and (and (not (= x121 x342)) (and (not (= x96 x121)) (and (not (= x121 x249)) (and (not (= x333 x121)) (not (= x380 x121)))))) (not (= x121 x371)))) (not (= x249 x333))) (not (= x333 x96))) (not (= x342 x333)))) (not (= x249 x380))) (not (= x380 x96)))) (not (= x371 x380)))))) (not (= x342 x96)))) (not (= x371 x342))))) (and (not (= x110 x30)) (and (and (and (and (and (and (not (= x30 x112)) (and (not (= x112 x110)) (and (and (not (= x171 x112)) (and (not (= x55 x30)) (and (and (and (and (not (= x112 x55)) (and (and (not (= x274 x110)) (and (and (and (not (= x274 x112)) (not (= x274 x55))) (not (= x171 x274))) (not (= x274 x100)))) (not (= x30 x274)))) (not (= x55 x171))) (not (= x100 x55))) (not (= x110 x55))))) (not (= x112 x100))))) (not (= x100 x171))) (not (= x171 x110))) (not (= x171 x30))) (not (= x100 x110))) (not (= x100 x30))))) (and (not (= x114 x392)) (and (and (not (= x114 x97)) (and (and (and (not (= x366 x97)) (and (not (= x392 x69)) (and (and (not (= x69 x97)) (and (and (not (= x392 x402)) (and (not (= x402 x114)) (and (and (and (and (not (= x392 x176)) (and (not (= x114 x176)) (and (and (and (not (= x176 x402)) (not (= x176 x69))) (not (= x366 x176))) (not (= x97 x176))))) (not (= x402 x69))) (not (= x366 x402))) (not (= x97 x402))))) (not (= x366 x69)))) (not (= x69 x114))))) (not (= x114 x366))) (not (= x366 x392)))) (not (= x392 x97))))))))
(check-sat)
(exit)
